# Solution for model GasLib-40
# Objective value = 1.1700932764736725e+01
loadshed[innode_1] 0
loadshed[innode_2] 0
loadshed[innode_3] 0
loadshed[innode_4] 0
loadshed[innode_5] 0
loadshed[innode_6] 0
loadshed[innode_7] 0
loadshed[innode_8] 0
loadshed[source_1] -2.2532020072056880e-01
loadshed[source_2] 1.0521946586705222e-01
loadshed[source_3] 1.9411498120180148e-01
loadshed[sink_1] 0
loadshed[sink_2] 0
loadshed[sink_3] 0
loadshed[sink_4] 0
loadshed[sink_5] 0
loadshed[sink_6] 0
loadshed[sink_7] 0
loadshed[sink_8] 0
loadshed[sink_9] 0
loadshed[sink_10] 0
loadshed[sink_11] 0
loadshed[sink_12] 7.1547104803485706e-01
loadshed[sink_13] 0
loadshed[sink_14] 0
loadshed[sink_15] 0
loadshed[sink_16] 0
loadshed[sink_17] 0
loadshed[sink_18] 0
loadshed[sink_19] 0
loadshed[sink_20] 0
loadshed[sink_21] 0
loadshed[sink_22] 0
loadshed[sink_23] 0
loadshed[sink_24] 0
loadshed[sink_25] 0
loadshed[sink_26] 0
loadshed[sink_27] 0
loadshed[sink_28] 0
loadshed[sink_29] 0
flow[source_1,sink_3] 1.9371121089863715e+02
flow[innode_1,sink_16] 1.6354166666666970e+01
flow[innode_6,sink_13] -1.2923419812089676e+01
flow[sink_13,sink_14] -2.9277586478756344e+01
flow[sink_14,sink_10] -4.5631753145423012e+01
flow[sink_25,sink_26] 1.7854059024154765e+02
flow[sink_26,sink_9] 1.3548656723526332e+02
flow[sink_9,sink_18] 1.1913240056859665e+02
flow[sink_26,sink_4] 2.6699856339618236e+01
flow[sink_4,sink_20] -3.8716810327050780e+01
flow[sink_18,sink_6] 1.0277823390192998e+02
flow[sink_25,innode_8] -1.6100287756530079e+02
flow[sink_6,sink_7] 5.3715733901929951e+01
flow[sink_6,sink_22] 3.2708333333333641e+01
flow[sink_7,sink_24] 3.7361567235263280e+01
flow[sink_22,sink_1] 1.6354166666666970e+01
flow[sink_24,sink_21] 2.1007400568596609e+01
flow[sink_21,sink_12] 4.6532339019299425e+00
flow[sink_7,sink_5] 0
flow[sink_5,sink_17] -1.6354166666667197e+01
flow[sink_17,sink_4] -4.9062500000002274e+01
flow[sink_17,sink_8] 1.6354166666668334e+01
flow[sink_3,sink_23] 16.3541666666697
flow[sink_8,sink_20] 0
flow[sink_25,sink_20] 5.5070976993717409e+01
flow[sink_25,sink_15] -7.6039436524541841e+01
flow[sink_15,sink_29] -9.2393603191208513e+01
flow[sink_29,sink_28] 1.6354166666667879e+01
flow[sink_29,sink_2] 1.6354166666684250e+01
flow[sink_2,sink_15] 0
flow[sink_29,innode_7] -1.4145610319122608e+02
flow[innode_4,sink_19] 4.9727271305483427e+01
flow[sink_19,innode_3] 4.6210395830741092e+01
flow[innode_4,innode_5] 7.7675315173273447e+01
flow[sink_27,innode_5] -7.7675315173273447e+01
flow[sink_27,sink_19] 6.1321148506606782e+01
flow[sink_10,sink_11] 3.2708333333333641e+01
flow[sink_10,innode_2] -4.8483857314682226e+01
flow[sink_10,innode_3] -4.6210395830741092e+01
flow[innode_6,sink_25] 1.2923419812089676e+01
flow[sink_11,innode_1] 1.6354166666666970e+01
flow[sink_19,innode_2] 4.8483857314682226e+01
flow[source_3,innode_4] 1.2740258647875687e+02
flow[source_2,innode_7] 1.4145610319122608e+02
flow[sink_3,innode_8] 1.6100287756530079e+02
pressure[innode_1] 7.6284398122031959e+01
pressure[innode_2] 7.8998671533605417e+01
pressure[innode_3] 7.8896343844797912e+01
pressure[innode_4] 81.01325
pressure[innode_5] 8.0959820822391762e+01
pressure[innode_6] 7.4154142190877948e+01
pressure[innode_7] 81.01325
pressure[innode_8] 8.0365747422330628e+01
pressure[source_1] 81.01325
pressure[source_2] 81.01325
pressure[source_3] 81.01325
pressure[sink_1] 4.4314284746227131e+01
pressure[sink_2] 7.6815583894818630e+01
pressure[sink_3] 8.0365747422330628e+01
pressure[sink_4] 5.8184944433907681e+01
pressure[sink_5] 55.0916702571458
pressure[sink_6] 46.4153623566145
pressure[sink_7] 4.5677973369071765e+01
pressure[sink_8] 5.5692852267086927e+01
pressure[sink_9] 5.3470412541005054e+01
pressure[sink_10] 76.4360994296355
pressure[sink_11] 7.6284398122031959e+01
pressure[sink_12] 1.0132500000000018e+00
pressure[sink_13] 7.4225386844597921e+01
pressure[sink_14] 7.4277781579500626e+01
pressure[sink_15] 7.4523007552509213e+01
pressure[sink_16] 7.5262748287214279e+01
pressure[sink_17] 5.6309937462500550e+01
pressure[sink_18] 4.9159847212813318e+01
pressure[sink_19] 7.8998671533605417e+01
pressure[sink_20] 6.1025389662842954e+01
pressure[sink_21] 2.6691252947901325e+00
pressure[sink_22] 4.5378053888582137e+01
pressure[sink_23] 8.0201029410670856e+01
pressure[sink_24] 2.9017627378844253e+00
pressure[sink_25] 7.4154142190877948e+01
pressure[sink_26] 61.5796332712398
pressure[sink_27] 8.0315259235003268e+01
pressure[sink_28] 7.6934571119665108e+01
pressure[sink_29] 7.7229853393282283e+01
interdiction[source_1,sink_3] 0
interdiction[innode_1,sink_16] 0
interdiction[innode_6,sink_13] 0
interdiction[sink_13,sink_14] 0
interdiction[sink_14,sink_10] 0
interdiction[sink_25,sink_26] 0
interdiction[sink_26,sink_9] 0
interdiction[sink_9,sink_18] 0
interdiction[sink_26,sink_4] 0
interdiction[sink_4,sink_20] 0
interdiction[sink_18,sink_6] 0
interdiction[sink_25,innode_8] 0
interdiction[sink_6,sink_7] 0
interdiction[sink_6,sink_22] 0
interdiction[sink_7,sink_24] 0
interdiction[sink_22,sink_1] 0
interdiction[sink_24,sink_21] 0
interdiction[sink_21,sink_12] 0
interdiction[sink_7,sink_5] 1
interdiction[sink_5,sink_17] 0
interdiction[sink_17,sink_4] 0
interdiction[sink_17,sink_8] 0
interdiction[sink_3,sink_23] 0
interdiction[sink_8,sink_20] 1
interdiction[sink_25,sink_20] 0
interdiction[sink_25,sink_15] 0
interdiction[sink_15,sink_29] 0
interdiction[sink_29,sink_28] 0
interdiction[sink_29,sink_2] 0
interdiction[sink_2,sink_15] 1
interdiction[sink_29,innode_7] 0
interdiction[innode_4,sink_19] 0
interdiction[sink_19,innode_3] 0
interdiction[innode_4,innode_5] 0
interdiction[sink_27,innode_5] 0
interdiction[sink_27,sink_19] 0
interdiction[sink_10,sink_11] 0
interdiction[sink_10,innode_2] 0
interdiction[sink_10,innode_3] 0
interdiction[innode_6,sink_25] 0
interdiction[sink_11,innode_1] 0
interdiction[sink_19,innode_2] 0
interdiction[source_3,innode_4] 0
interdiction[source_2,innode_7] 0
interdiction[sink_3,innode_8] 0
WCcheckFlow[source_1,sink_3] 39
WCcheckFlow[innode_1,sink_16] 1
WCcheckFlow[innode_6,sink_13] 13
WCcheckFlow[sink_13,sink_14] 12
WCcheckFlow[sink_14,sink_10] 11
WCcheckFlow[sink_25,sink_26] 15
WCcheckFlow[sink_26,sink_9] 9
WCcheckFlow[sink_9,sink_18] 8
WCcheckFlow[sink_26,sink_4] 5
WCcheckFlow[sink_4,sink_20] 1
WCcheckFlow[sink_18,sink_6] 7
WCcheckFlow[sink_25,innode_8] -36
WCcheckFlow[sink_6,sink_7] 4
WCcheckFlow[sink_6,sink_22] 2
WCcheckFlow[sink_7,sink_24] 3
WCcheckFlow[sink_22,sink_1] 1
WCcheckFlow[sink_24,sink_21] 2
WCcheckFlow[sink_21,sink_12] 1
WCcheckFlow[sink_7,sink_5] 0
WCcheckFlow[sink_5,sink_17] -1
WCcheckFlow[sink_17,sink_4] -3
WCcheckFlow[sink_17,sink_8] 1
WCcheckFlow[sink_3,sink_23] 1
WCcheckFlow[sink_8,sink_20] 0
WCcheckFlow[sink_25,sink_20] 0
WCcheckFlow[sink_25,sink_15] 6
WCcheckFlow[sink_15,sink_29] 5
WCcheckFlow[sink_29,sink_28] 1
WCcheckFlow[sink_29,sink_2] 1
WCcheckFlow[sink_2,sink_15] 0
WCcheckFlow[sink_29,innode_7] 2
WCcheckFlow[innode_4,sink_19] -4
WCcheckFlow[sink_19,innode_3] -5
WCcheckFlow[innode_4,innode_5] 2
WCcheckFlow[sink_27,innode_5] -1
WCcheckFlow[sink_27,sink_19] 0
WCcheckFlow[sink_10,sink_11] 3
WCcheckFlow[sink_10,innode_2] 1
WCcheckFlow[sink_10,innode_3] 6
WCcheckFlow[innode_6,sink_25] -14
WCcheckFlow[sink_11,innode_1] 2
WCcheckFlow[sink_19,innode_2] 0
WCcheckFlow[source_3,innode_4] -1
WCcheckFlow[source_2,innode_7] -1
WCcheckFlow[sink_3,innode_8] 37
